data/lp_files/pEFS/70_0.lp
\ Model foo
\ LP format - for model browsing. Use MPS format to capture full model detail.
Minimize
  z
Subject To
 allocateEach[1]: x[1,1] + x[2,1] + x[3,1] + x[4,1] = 1
 allocateEach[2]: x[1,2] + x[2,2] + x[3,2] + x[4,2] = 1
 allocateEach[3]: x[1,3] + x[2,3] + x[3,3] + x[4,3] = 1
 allocateEach[4]: x[1,4] + x[2,4] + x[3,4] + x[4,4] = 1
 allocateEach[5]: x[1,5] + x[2,5] + x[3,5] + x[4,5] = 1
 allocateEach[6]: x[1,6] + x[2,6] + x[3,6] + x[4,6] = 1
 allocateEach[7]: x[1,7] + x[2,7] + x[3,7] + x[4,7] = 1
 allocateEach[8]: x[1,8] + x[2,8] + x[3,8] + x[4,8] = 1
 allocateEach[9]: x[1,9] + x[2,9] + x[3,9] + x[4,9] = 1
 allocateEach[10]: x[1,10] + x[2,10] + x[3,10] + x[4,10] = 1
 allocateAllCash: cashProportion[1] + cashProportion[2] + cashProportion[3]
   + cashProportion[4] = 1
 findWorstP[1,2]: z + 0.00773311474395657 cashProportion[1]
   - 0.00773311474395657 cashProportion[2] + 0.0171984471905594 x[1,1]
   + 0.1355769676910466 x[1,2] + 0.1386547473591413 x[1,3]
   + 0.1381134293270644 x[1,4] + 0.1121146975578824 x[1,5]
   + 0.151352521768718 x[1,6] + 0.0155126281763769 x[1,7]
   + 0.1408045532579612 x[1,8] + 0.00595449835284656 x[1,9]
   + 0.1369843945744467 x[1,10] - 0.0171984471905594 x[2,1]
   - 0.1355769676910466 x[2,2] - 0.1386547473591413 x[2,3]
   - 0.1381134293270644 x[2,4] - 0.1121146975578824 x[2,5]
   - 0.151352521768718 x[2,6] - 0.0155126281763769 x[2,7]
   - 0.1408045532579612 x[2,8] - 0.00595449835284656 x[2,9]
   - 0.1369843945744467 x[2,10] >= 0
 findWorstP[1,3]: z + 0.00773311474395657 cashProportion[1]
   - 0.00773311474395657 cashProportion[3] + 0.0171984471905594 x[1,1]
   + 0.1355769676910466 x[1,2] + 0.1386547473591413 x[1,3]
   + 0.1381134293270644 x[1,4] + 0.1121146975578824 x[1,5]
   + 0.151352521768718 x[1,6] + 0.0155126281763769 x[1,7]
   + 0.1408045532579612 x[1,8] + 0.00595449835284656 x[1,9]
   + 0.1369843945744467 x[1,10] - 0.0171984471905594 x[3,1]
   - 0.1355769676910466 x[3,2] - 0.1386547473591413 x[3,3]
   - 0.1381134293270644 x[3,4] - 0.1121146975578824 x[3,5]
   - 0.151352521768718 x[3,6] - 0.0155126281763769 x[3,7]
   - 0.1408045532579612 x[3,8] - 0.00595449835284656 x[3,9]
   - 0.1369843945744467 x[3,10] >= 0
 findWorstP[1,4]: z + 0.00773311474395657 cashProportion[1]
   - 0.00773311474395657 cashProportion[4] + 0.0171984471905594 x[1,1]
   + 0.1355769676910466 x[1,2] + 0.1386547473591413 x[1,3]
   + 0.1381134293270644 x[1,4] + 0.1121146975578824 x[1,5]
   + 0.151352521768718 x[1,6] + 0.0155126281763769 x[1,7]
   + 0.1408045532579612 x[1,8] + 0.00595449835284656 x[1,9]
   + 0.1369843945744467 x[1,10] - 0.0171984471905594 x[4,1]
   - 0.1355769676910466 x[4,2] - 0.1386547473591413 x[4,3]
   - 0.1381134293270644 x[4,4] - 0.1121146975578824 x[4,5]
   - 0.151352521768718 x[4,6] - 0.0155126281763769 x[4,7]
   - 0.1408045532579612 x[4,8] - 0.00595449835284656 x[4,9]
   - 0.1369843945744467 x[4,10] >= 0
 findWorstP[2,1]: z - 0.00859608706116976 cashProportion[1]
   + 0.00859608706116976 cashProportion[2] - 0.0388543135164873 x[1,1]
   - 0.1491764948595399 x[1,2] - 0.1553312931953375 x[1,3]
   - 0.0201148437231372 x[1,4] - 0.1673142385586081 x[1,5]
   - 0.1116803630987174 x[1,6] - 0.0358628752192002 x[1,7]
   - 0.1469930887460028 x[1,8] - 0.1205859092940893 x[1,9]
   - 0.0454904927277103 x[1,10] + 0.0388543135164873 x[2,1]
   + 0.1491764948595399 x[2,2] + 0.1553312931953375 x[2,3]
   + 0.0201148437231372 x[2,4] + 0.1673142385586081 x[2,5]
   + 0.1116803630987174 x[2,6] + 0.0358628752192002 x[2,7]
   + 0.1469930887460028 x[2,8] + 0.1205859092940893 x[2,9]
   + 0.0454904927277103 x[2,10] >= 0
 findWorstP[2,3]: z + 0.00859608706116976 cashProportion[2]
   - 0.00859608706116976 cashProportion[3] + 0.0388543135164873 x[2,1]
   + 0.1491764948595399 x[2,2] + 0.1553312931953375 x[2,3]
   + 0.0201148437231372 x[2,4] + 0.1673142385586081 x[2,5]
   + 0.1116803630987174 x[2,6] + 0.0358628752192002 x[2,7]
   + 0.1469930887460028 x[2,8] + 0.1205859092940893 x[2,9]
   + 0.0454904927277103 x[2,10] - 0.0388543135164873 x[3,1]
   - 0.1491764948595399 x[3,2] - 0.1553312931953375 x[3,3]
   - 0.0201148437231372 x[3,4] - 0.1673142385586081 x[3,5]
   - 0.1116803630987174 x[3,6] - 0.0358628752192002 x[3,7]
   - 0.1469930887460028 x[3,8] - 0.1205859092940893 x[3,9]
   - 0.0454904927277103 x[3,10] >= 0
 findWorstP[2,4]: z + 0.00859608706116976 cashProportion[2]
   - 0.00859608706116976 cashProportion[4] + 0.0388543135164873 x[2,1]
   + 0.1491764948595399 x[2,2] + 0.1553312931953375 x[2,3]
   + 0.0201148437231372 x[2,4] + 0.1673142385586081 x[2,5]
   + 0.1116803630987174 x[2,6] + 0.0358628752192002 x[2,7]
   + 0.1469930887460028 x[2,8] + 0.1205859092940893 x[2,9]
   + 0.0454904927277103 x[2,10] - 0.0388543135164873 x[4,1]
   - 0.1491764948595399 x[4,2] - 0.1553312931953375 x[4,3]
   - 0.0201148437231372 x[4,4] - 0.1673142385586081 x[4,5]
   - 0.1116803630987174 x[4,6] - 0.0358628752192002 x[4,7]
   - 0.1469930887460028 x[4,8] - 0.1205859092940893 x[4,9]
   - 0.0454904927277103 x[4,10] >= 0
 findWorstP[3,1]: z - 0.0134611242730993 cashProportion[1]
   + 0.0134611242730993 cashProportion[3] - 0.0918048675425372 x[1,1]
   - 0.0496715485677364 x[1,2] - 0.2516422571613182 x[1,3]
   - 0.0754899849235408 x[1,4] - 0.1538875726900711 x[1,5]
   - 0.0468985569674779 x[1,6] - 0.174213870342451 x[1,7]
   - 0.0417025629980616 x[1,8] - 0.0294529399095413 x[1,9]
   - 0.0717747146241654 x[1,10] + 0.0918048675425372 x[3,1]
   + 0.0496715485677364 x[3,2] + 0.2516422571613182 x[3,3]
   + 0.0754899849235408 x[3,4] + 0.1538875726900711 x[3,5]
   + 0.0468985569674779 x[3,6] + 0.174213870342451 x[3,7]
   + 0.0417025629980616 x[3,8] + 0.0294529399095413 x[3,9]
   + 0.0717747146241654 x[3,10] >= 0
 findWorstP[3,2]: z - 0.0134611242730993 cashProportion[2]
   + 0.0134611242730993 cashProportion[3] - 0.0918048675425372 x[2,1]
   - 0.0496715485677364 x[2,2] - 0.2516422571613182 x[2,3]
   - 0.0754899849235408 x[2,4] - 0.1538875726900711 x[2,5]
   - 0.0468985569674779 x[2,6] - 0.174213870342451 x[2,7]
   - 0.0417025629980616 x[2,8] - 0.0294529399095413 x[2,9]
   - 0.0717747146241654 x[2,10] + 0.0918048675425372 x[3,1]
   + 0.0496715485677364 x[3,2] + 0.2516422571613182 x[3,3]
   + 0.0754899849235408 x[3,4] + 0.1538875726900711 x[3,5]
   + 0.0468985569674779 x[3,6] + 0.174213870342451 x[3,7]
   + 0.0417025629980616 x[3,8] + 0.0294529399095413 x[3,9]
   + 0.0717747146241654 x[3,10] >= 0
 findWorstP[3,4]: z + 0.0134611242730993 cashProportion[3]
   - 0.0134611242730993 cashProportion[4] + 0.0918048675425372 x[3,1]
   + 0.0496715485677364 x[3,2] + 0.2516422571613182 x[3,3]
   + 0.0754899849235408 x[3,4] + 0.1538875726900711 x[3,5]
   + 0.0468985569674779 x[3,6] + 0.174213870342451 x[3,7]
   + 0.0417025629980616 x[3,8] + 0.0294529399095413 x[3,9]
   + 0.0717747146241654 x[3,10] - 0.0918048675425372 x[4,1]
   - 0.0496715485677364 x[4,2] - 0.2516422571613182 x[4,3]
   - 0.0754899849235408 x[4,4] - 0.1538875726900711 x[4,5]
   - 0.0468985569674779 x[4,6] - 0.174213870342451 x[4,7]
   - 0.0417025629980616 x[4,8] - 0.0294529399095413 x[4,9]
   - 0.0717747146241654 x[4,10] >= 0
 findWorstP[4,1]: z - 0.010951942874666 cashProportion[1]
   + 0.010951942874666 cashProportion[4] - 0.1937617733385903 x[1,1]
   - 0.00488456652210102 x[1,2] - 0.0817233977307574 x[1,3]
   - 0.0251894686117317 x[1,4] - 0.0817453016165068 x[1,5]
   - 0.0790730275550883 x[1,6] - 0.1475226705217506 x[1,7]
   - 0.0837604591054453 x[1,8] - 0.1692951329565865 x[1,9]
   - 0.1220922591667762 x[1,10] + 0.1937617733385903 x[4,1]
   + 0.00488456652210102 x[4,2] + 0.0817233977307574 x[4,3]
   + 0.0251894686117317 x[4,4] + 0.0817453016165068 x[4,5]
   + 0.0790730275550883 x[4,6] + 0.1475226705217506 x[4,7]
   + 0.0837604591054453 x[4,8] + 0.1692951329565865 x[4,9]
   + 0.1220922591667762 x[4,10] >= 0
 findWorstP[4,2]: z - 0.010951942874666 cashProportion[2]
   + 0.010951942874666 cashProportion[4] - 0.1937617733385903 x[2,1]
   - 0.00488456652210102 x[2,2] - 0.0817233977307574 x[2,3]
   - 0.0251894686117317 x[2,4] - 0.0817453016165068 x[2,5]
   - 0.0790730275550883 x[2,6] - 0.1475226705217506 x[2,7]
   - 0.0837604591054453 x[2,8] - 0.1692951329565865 x[2,9]
   - 0.1220922591667762 x[2,10] + 0.1937617733385903 x[4,1]
   + 0.00488456652210102 x[4,2] + 0.0817233977307574 x[4,3]
   + 0.0251894686117317 x[4,4] + 0.0817453016165068 x[4,5]
   + 0.0790730275550883 x[4,6] + 0.1475226705217506 x[4,7]
   + 0.0837604591054453 x[4,8] + 0.1692951329565865 x[4,9]
   + 0.1220922591667762 x[4,10] >= 0
 findWorstP[4,3]: z - 0.010951942874666 cashProportion[3]
   + 0.010951942874666 cashProportion[4] - 0.1937617733385903 x[3,1]
   - 0.00488456652210102 x[3,2] - 0.0817233977307574 x[3,3]
   - 0.0251894686117317 x[3,4] - 0.0817453016165068 x[3,5]
   - 0.0790730275550883 x[3,6] - 0.1475226705217506 x[3,7]
   - 0.0837604591054453 x[3,8] - 0.1692951329565865 x[3,9]
   - 0.1220922591667762 x[3,10] + 0.1937617733385903 x[4,1]
   + 0.00488456652210102 x[4,2] + 0.0817233977307574 x[4,3]
   + 0.0251894686117317 x[4,4] + 0.0817453016165068 x[4,5]
   + 0.0790730275550883 x[4,6] + 0.1475226705217506 x[4,7]
   + 0.0837604591054453 x[4,8] + 0.1692951329565865 x[4,9]
   + 0.1220922591667762 x[4,10] >= 0
Bounds
 z <= 1
 -infinity <= cashProportion[1] <= 1
 -infinity <= cashProportion[2] <= 1
 -infinity <= cashProportion[3] <= 1
 -infinity <= cashProportion[4] <= 1
Binaries
 x[1,1] x[1,2] x[1,3] x[1,4] x[1,5] x[1,6] x[1,7] x[1,8] x[1,9] x[1,10]
 x[2,1] x[2,2] x[2,3] x[2,4] x[2,5] x[2,6] x[2,7] x[2,8] x[2,9] x[2,10]
 x[3,1] x[3,2] x[3,3] x[3,4] x[3,5] x[3,6] x[3,7] x[3,8] x[3,9] x[3,10]
 x[4,1] x[4,2] x[4,3] x[4,4] x[4,5] x[4,6] x[4,7] x[4,8] x[4,9] x[4,10]
End
