data/mps_files/q3/70_0.mps
NAME foo
ROWS
 N  OBJ
 E  allocateEach[1]
 E  allocateEach[2]
 E  allocateEach[3]
 E  allocateEach[4]
 E  allocateEach[5]
 E  allocateEach[6]
 E  allocateEach[7]
 E  allocateEach[8]
 E  allocateEach[9]
 E  allocateEach[10]
 E  allocateAllCash
 G  findWorstP[1,2]
 G  findWorstP[1,3]
 G  findWorstP[1,4]
 G  findWorstP[2,1]
 G  findWorstP[2,3]
 G  findWorstP[2,4]
 G  findWorstP[3,1]
 G  findWorstP[3,2]
 G  findWorstP[3,4]
 G  findWorstP[4,1]
 G  findWorstP[4,2]
 G  findWorstP[4,3]
COLUMNS
    z         OBJ       1
    z         findWorstP[1,2]  1
    z         findWorstP[1,3]  1
    z         findWorstP[1,4]  1
    z         findWorstP[2,1]  1
    z         findWorstP[2,3]  1
    z         findWorstP[2,4]  1
    z         findWorstP[3,1]  1
    z         findWorstP[3,2]  1
    z         findWorstP[3,4]  1
    z         findWorstP[4,1]  1
    z         findWorstP[4,2]  1
    z         findWorstP[4,3]  1
    cashProportion[1]  allocateAllCash  1
    cashProportion[1]  findWorstP[1,2]  7.7331147439565710e-03
    cashProportion[1]  findWorstP[1,3]  7.7331147439565710e-03
    cashProportion[1]  findWorstP[1,4]  7.7331147439565710e-03
    cashProportion[1]  findWorstP[2,1]  -8.5960870611697555e-03
    cashProportion[1]  findWorstP[3,1]  -1.3461124273099293e-02
    cashProportion[1]  findWorstP[4,1]  -1.0951942874665967e-02
    cashProportion[2]  allocateAllCash  1
    cashProportion[2]  findWorstP[1,2]  -7.7331147439565710e-03
    cashProportion[2]  findWorstP[2,1]  8.5960870611697555e-03
    cashProportion[2]  findWorstP[2,3]  8.5960870611697555e-03
    cashProportion[2]  findWorstP[2,4]  8.5960870611697555e-03
    cashProportion[2]  findWorstP[3,2]  -1.3461124273099293e-02
    cashProportion[2]  findWorstP[4,2]  -1.0951942874665967e-02
    cashProportion[3]  allocateAllCash  1
    cashProportion[3]  findWorstP[1,3]  -7.7331147439565710e-03
    cashProportion[3]  findWorstP[2,3]  -8.5960870611697555e-03
    cashProportion[3]  findWorstP[3,1]  1.3461124273099293e-02
    cashProportion[3]  findWorstP[3,2]  1.3461124273099293e-02
    cashProportion[3]  findWorstP[3,4]  1.3461124273099293e-02
    cashProportion[3]  findWorstP[4,3]  -1.0951942874665967e-02
    cashProportion[4]  allocateAllCash  1
    cashProportion[4]  findWorstP[1,4]  -7.7331147439565710e-03
    cashProportion[4]  findWorstP[2,4]  -8.5960870611697555e-03
    cashProportion[4]  findWorstP[3,4]  -1.3461124273099293e-02
    cashProportion[4]  findWorstP[4,1]  1.0951942874665967e-02
    cashProportion[4]  findWorstP[4,2]  1.0951942874665967e-02
    cashProportion[4]  findWorstP[4,3]  1.0951942874665967e-02
    MARKER    'MARKER'                 'INTORG'
    x[1,1]    allocateEach[1]  1
    x[1,1]    findWorstP[1,2]  1.7198447190559411e-02
    x[1,1]    findWorstP[1,3]  1.7198447190559411e-02
    x[1,1]    findWorstP[1,4]  1.7198447190559411e-02
    x[1,1]    findWorstP[2,1]  -3.8854313516487292e-02
    x[1,1]    findWorstP[3,1]  -9.1804867542537180e-02
    x[1,1]    findWorstP[4,1]  -1.9376177333859029e-01
    x[1,2]    allocateEach[2]  1
    x[1,2]    findWorstP[1,2]  1.3557696769104660e-01
    x[1,2]    findWorstP[1,3]  1.3557696769104660e-01
    x[1,2]    findWorstP[1,4]  1.3557696769104660e-01
    x[1,2]    findWorstP[2,1]  -1.4917649485953993e-01
    x[1,2]    findWorstP[3,1]  -4.9671548567736389e-02
    x[1,2]    findWorstP[4,1]  -4.8845665221010212e-03
    x[1,3]    allocateEach[3]  1
    x[1,3]    findWorstP[1,2]  1.3865474735914129e-01
    x[1,3]    findWorstP[1,3]  1.3865474735914129e-01
    x[1,3]    findWorstP[1,4]  1.3865474735914129e-01
    x[1,3]    findWorstP[2,1]  -1.5533129319533748e-01
    x[1,3]    findWorstP[3,1]  -2.5164225716131816e-01
    x[1,3]    findWorstP[4,1]  -8.1723397730757444e-02
    x[1,4]    allocateEach[4]  1
    x[1,4]    findWorstP[1,2]  1.3811342932706436e-01
    x[1,4]    findWorstP[1,3]  1.3811342932706436e-01
    x[1,4]    findWorstP[1,4]  1.3811342932706436e-01
    x[1,4]    findWorstP[2,1]  -2.0114843723137227e-02
    x[1,4]    findWorstP[3,1]  -7.5489984923540823e-02
    x[1,4]    findWorstP[4,1]  -2.5189468611731724e-02
    x[1,5]    allocateEach[5]  1
    x[1,5]    findWorstP[1,2]  1.1211469755788236e-01
    x[1,5]    findWorstP[1,3]  1.1211469755788236e-01
    x[1,5]    findWorstP[1,4]  1.1211469755788236e-01
    x[1,5]    findWorstP[2,1]  -1.6731423855860811e-01
    x[1,5]    findWorstP[3,1]  -1.5388757269007111e-01
    x[1,5]    findWorstP[4,1]  -8.1745301616506769e-02
    x[1,6]    allocateEach[6]  1
    x[1,6]    findWorstP[1,2]  0.151352521768718
    x[1,6]    findWorstP[1,3]  0.151352521768718
    x[1,6]    findWorstP[1,4]  0.151352521768718
    x[1,6]    findWorstP[2,1]  -1.1168036309871744e-01
    x[1,6]    findWorstP[3,1]  -4.6898556967477932e-02
    x[1,6]    findWorstP[4,1]  -7.9073027555088271e-02
    x[1,7]    allocateEach[7]  1
    x[1,7]    findWorstP[1,2]  1.5512628176376881e-02
    x[1,7]    findWorstP[1,3]  1.5512628176376881e-02
    x[1,7]    findWorstP[1,4]  1.5512628176376881e-02
    x[1,7]    findWorstP[2,1]  -3.5862875219200216e-02
    x[1,7]    findWorstP[3,1]  -1.7421387034245103e-01
    x[1,7]    findWorstP[4,1]  -1.4752267052175058e-01
    x[1,8]    allocateEach[8]  1
    x[1,8]    findWorstP[1,2]  1.4080455325796123e-01
    x[1,8]    findWorstP[1,3]  1.4080455325796123e-01
    x[1,8]    findWorstP[1,4]  1.4080455325796123e-01
    x[1,8]    findWorstP[2,1]  -1.4699308874600281e-01
    x[1,8]    findWorstP[3,1]  -4.1702562998061611e-02
    x[1,8]    findWorstP[4,1]  -8.3760459105445315e-02
    x[1,9]    allocateEach[9]  1
    x[1,9]    findWorstP[1,2]  5.9544983528465592e-03
    x[1,9]    findWorstP[1,3]  5.9544983528465592e-03
    x[1,9]    findWorstP[1,4]  5.9544983528465592e-03
    x[1,9]    findWorstP[2,1]  -1.2058590929408933e-01
    x[1,9]    findWorstP[3,1]  -2.9452939909541252e-02
    x[1,9]    findWorstP[4,1]  -1.6929513295658652e-01
    x[1,10]   allocateEach[10]  1
    x[1,10]   findWorstP[1,2]  1.3698439457444669e-01
    x[1,10]   findWorstP[1,3]  1.3698439457444669e-01
    x[1,10]   findWorstP[1,4]  1.3698439457444669e-01
    x[1,10]   findWorstP[2,1]  -4.5490492727710344e-02
    x[1,10]   findWorstP[3,1]  -7.1774714624165431e-02
    x[1,10]   findWorstP[4,1]  -1.2209225916677620e-01
    x[2,1]    allocateEach[1]  1
    x[2,1]    findWorstP[1,2]  -1.7198447190559411e-02
    x[2,1]    findWorstP[2,1]  3.8854313516487292e-02
    x[2,1]    findWorstP[2,3]  3.8854313516487292e-02
    x[2,1]    findWorstP[2,4]  3.8854313516487292e-02
    x[2,1]    findWorstP[3,2]  -9.1804867542537180e-02
    x[2,1]    findWorstP[4,2]  -1.9376177333859029e-01
    x[2,2]    allocateEach[2]  1
    x[2,2]    findWorstP[1,2]  -1.3557696769104660e-01
    x[2,2]    findWorstP[2,1]  1.4917649485953993e-01
    x[2,2]    findWorstP[2,3]  1.4917649485953993e-01
    x[2,2]    findWorstP[2,4]  1.4917649485953993e-01
    x[2,2]    findWorstP[3,2]  -4.9671548567736389e-02
    x[2,2]    findWorstP[4,2]  -4.8845665221010212e-03
    x[2,3]    allocateEach[3]  1
    x[2,3]    findWorstP[1,2]  -1.3865474735914129e-01
    x[2,3]    findWorstP[2,1]  1.5533129319533748e-01
    x[2,3]    findWorstP[2,3]  1.5533129319533748e-01
    x[2,3]    findWorstP[2,4]  1.5533129319533748e-01
    x[2,3]    findWorstP[3,2]  -2.5164225716131816e-01
    x[2,3]    findWorstP[4,2]  -8.1723397730757444e-02
    x[2,4]    allocateEach[4]  1
    x[2,4]    findWorstP[1,2]  -1.3811342932706436e-01
    x[2,4]    findWorstP[2,1]  2.0114843723137227e-02
    x[2,4]    findWorstP[2,3]  2.0114843723137227e-02
    x[2,4]    findWorstP[2,4]  2.0114843723137227e-02
    x[2,4]    findWorstP[3,2]  -7.5489984923540823e-02
    x[2,4]    findWorstP[4,2]  -2.5189468611731724e-02
    x[2,5]    allocateEach[5]  1
    x[2,5]    findWorstP[1,2]  -1.1211469755788236e-01
    x[2,5]    findWorstP[2,1]  1.6731423855860811e-01
    x[2,5]    findWorstP[2,3]  1.6731423855860811e-01
    x[2,5]    findWorstP[2,4]  1.6731423855860811e-01
    x[2,5]    findWorstP[3,2]  -1.5388757269007111e-01
    x[2,5]    findWorstP[4,2]  -8.1745301616506769e-02
    x[2,6]    allocateEach[6]  1
    x[2,6]    findWorstP[1,2]  -0.151352521768718
    x[2,6]    findWorstP[2,1]  1.1168036309871744e-01
    x[2,6]    findWorstP[2,3]  1.1168036309871744e-01
    x[2,6]    findWorstP[2,4]  1.1168036309871744e-01
    x[2,6]    findWorstP[3,2]  -4.6898556967477932e-02
    x[2,6]    findWorstP[4,2]  -7.9073027555088271e-02
    x[2,7]    allocateEach[7]  1
    x[2,7]    findWorstP[1,2]  -1.5512628176376881e-02
    x[2,7]    findWorstP[2,1]  3.5862875219200216e-02
    x[2,7]    findWorstP[2,3]  3.5862875219200216e-02
    x[2,7]    findWorstP[2,4]  3.5862875219200216e-02
    x[2,7]    findWorstP[3,2]  -1.7421387034245103e-01
    x[2,7]    findWorstP[4,2]  -1.4752267052175058e-01
    x[2,8]    allocateEach[8]  1
    x[2,8]    findWorstP[1,2]  -1.4080455325796123e-01
    x[2,8]    findWorstP[2,1]  1.4699308874600281e-01
    x[2,8]    findWorstP[2,3]  1.4699308874600281e-01
    x[2,8]    findWorstP[2,4]  1.4699308874600281e-01
    x[2,8]    findWorstP[3,2]  -4.1702562998061611e-02
    x[2,8]    findWorstP[4,2]  -8.3760459105445315e-02
    x[2,9]    allocateEach[9]  1
    x[2,9]    findWorstP[1,2]  -5.9544983528465592e-03
    x[2,9]    findWorstP[2,1]  1.2058590929408933e-01
    x[2,9]    findWorstP[2,3]  1.2058590929408933e-01
    x[2,9]    findWorstP[2,4]  1.2058590929408933e-01
    x[2,9]    findWorstP[3,2]  -2.9452939909541252e-02
    x[2,9]    findWorstP[4,2]  -1.6929513295658652e-01
    x[2,10]   allocateEach[10]  1
    x[2,10]   findWorstP[1,2]  -1.3698439457444669e-01
    x[2,10]   findWorstP[2,1]  4.5490492727710344e-02
    x[2,10]   findWorstP[2,3]  4.5490492727710344e-02
    x[2,10]   findWorstP[2,4]  4.5490492727710344e-02
    x[2,10]   findWorstP[3,2]  -7.1774714624165431e-02
    x[2,10]   findWorstP[4,2]  -1.2209225916677620e-01
    x[3,1]    allocateEach[1]  1
    x[3,1]    findWorstP[1,3]  -1.7198447190559411e-02
    x[3,1]    findWorstP[2,3]  -3.8854313516487292e-02
    x[3,1]    findWorstP[3,1]  9.1804867542537180e-02
    x[3,1]    findWorstP[3,2]  9.1804867542537180e-02
    x[3,1]    findWorstP[3,4]  9.1804867542537180e-02
    x[3,1]    findWorstP[4,3]  -1.9376177333859029e-01
    x[3,2]    allocateEach[2]  1
    x[3,2]    findWorstP[1,3]  -1.3557696769104660e-01
    x[3,2]    findWorstP[2,3]  -1.4917649485953993e-01
    x[3,2]    findWorstP[3,1]  4.9671548567736389e-02
    x[3,2]    findWorstP[3,2]  4.9671548567736389e-02
    x[3,2]    findWorstP[3,4]  4.9671548567736389e-02
    x[3,2]    findWorstP[4,3]  -4.8845665221010212e-03
    x[3,3]    allocateEach[3]  1
    x[3,3]    findWorstP[1,3]  -1.3865474735914129e-01
    x[3,3]    findWorstP[2,3]  -1.5533129319533748e-01
    x[3,3]    findWorstP[3,1]  2.5164225716131816e-01
    x[3,3]    findWorstP[3,2]  2.5164225716131816e-01
    x[3,3]    findWorstP[3,4]  2.5164225716131816e-01
    x[3,3]    findWorstP[4,3]  -8.1723397730757444e-02
    x[3,4]    allocateEach[4]  1
    x[3,4]    findWorstP[1,3]  -1.3811342932706436e-01
    x[3,4]    findWorstP[2,3]  -2.0114843723137227e-02
    x[3,4]    findWorstP[3,1]  7.5489984923540823e-02
    x[3,4]    findWorstP[3,2]  7.5489984923540823e-02
    x[3,4]    findWorstP[3,4]  7.5489984923540823e-02
    x[3,4]    findWorstP[4,3]  -2.5189468611731724e-02
    x[3,5]    allocateEach[5]  1
    x[3,5]    findWorstP[1,3]  -1.1211469755788236e-01
    x[3,5]    findWorstP[2,3]  -1.6731423855860811e-01
    x[3,5]    findWorstP[3,1]  1.5388757269007111e-01
    x[3,5]    findWorstP[3,2]  1.5388757269007111e-01
    x[3,5]    findWorstP[3,4]  1.5388757269007111e-01
    x[3,5]    findWorstP[4,3]  -8.1745301616506769e-02
    x[3,6]    allocateEach[6]  1
    x[3,6]    findWorstP[1,3]  -0.151352521768718
    x[3,6]    findWorstP[2,3]  -1.1168036309871744e-01
    x[3,6]    findWorstP[3,1]  4.6898556967477932e-02
    x[3,6]    findWorstP[3,2]  4.6898556967477932e-02
    x[3,6]    findWorstP[3,4]  4.6898556967477932e-02
    x[3,6]    findWorstP[4,3]  -7.9073027555088271e-02
    x[3,7]    allocateEach[7]  1
    x[3,7]    findWorstP[1,3]  -1.5512628176376881e-02
    x[3,7]    findWorstP[2,3]  -3.5862875219200216e-02
    x[3,7]    findWorstP[3,1]  1.7421387034245103e-01
    x[3,7]    findWorstP[3,2]  1.7421387034245103e-01
    x[3,7]    findWorstP[3,4]  1.7421387034245103e-01
    x[3,7]    findWorstP[4,3]  -1.4752267052175058e-01
    x[3,8]    allocateEach[8]  1
    x[3,8]    findWorstP[1,3]  -1.4080455325796123e-01
    x[3,8]    findWorstP[2,3]  -1.4699308874600281e-01
    x[3,8]    findWorstP[3,1]  4.1702562998061611e-02
    x[3,8]    findWorstP[3,2]  4.1702562998061611e-02
    x[3,8]    findWorstP[3,4]  4.1702562998061611e-02
    x[3,8]    findWorstP[4,3]  -8.3760459105445315e-02
    x[3,9]    allocateEach[9]  1
    x[3,9]    findWorstP[1,3]  -5.9544983528465592e-03
    x[3,9]    findWorstP[2,3]  -1.2058590929408933e-01
    x[3,9]    findWorstP[3,1]  2.9452939909541252e-02
    x[3,9]    findWorstP[3,2]  2.9452939909541252e-02
    x[3,9]    findWorstP[3,4]  2.9452939909541252e-02
    x[3,9]    findWorstP[4,3]  -1.6929513295658652e-01
    x[3,10]   allocateEach[10]  1
    x[3,10]   findWorstP[1,3]  -1.3698439457444669e-01
    x[3,10]   findWorstP[2,3]  -4.5490492727710344e-02
    x[3,10]   findWorstP[3,1]  7.1774714624165431e-02
    x[3,10]   findWorstP[3,2]  7.1774714624165431e-02
    x[3,10]   findWorstP[3,4]  7.1774714624165431e-02
    x[3,10]   findWorstP[4,3]  -1.2209225916677620e-01
    x[4,1]    allocateEach[1]  1
    x[4,1]    findWorstP[1,4]  -1.7198447190559411e-02
    x[4,1]    findWorstP[2,4]  -3.8854313516487292e-02
    x[4,1]    findWorstP[3,4]  -9.1804867542537180e-02
    x[4,1]    findWorstP[4,1]  1.9376177333859029e-01
    x[4,1]    findWorstP[4,2]  1.9376177333859029e-01
    x[4,1]    findWorstP[4,3]  1.9376177333859029e-01
    x[4,2]    allocateEach[2]  1
    x[4,2]    findWorstP[1,4]  -1.3557696769104660e-01
    x[4,2]    findWorstP[2,4]  -1.4917649485953993e-01
    x[4,2]    findWorstP[3,4]  -4.9671548567736389e-02
    x[4,2]    findWorstP[4,1]  4.8845665221010212e-03
    x[4,2]    findWorstP[4,2]  4.8845665221010212e-03
    x[4,2]    findWorstP[4,3]  4.8845665221010212e-03
    x[4,3]    allocateEach[3]  1
    x[4,3]    findWorstP[1,4]  -1.3865474735914129e-01
    x[4,3]    findWorstP[2,4]  -1.5533129319533748e-01
    x[4,3]    findWorstP[3,4]  -2.5164225716131816e-01
    x[4,3]    findWorstP[4,1]  8.1723397730757444e-02
    x[4,3]    findWorstP[4,2]  8.1723397730757444e-02
    x[4,3]    findWorstP[4,3]  8.1723397730757444e-02
    x[4,4]    allocateEach[4]  1
    x[4,4]    findWorstP[1,4]  -1.3811342932706436e-01
    x[4,4]    findWorstP[2,4]  -2.0114843723137227e-02
    x[4,4]    findWorstP[3,4]  -7.5489984923540823e-02
    x[4,4]    findWorstP[4,1]  2.5189468611731724e-02
    x[4,4]    findWorstP[4,2]  2.5189468611731724e-02
    x[4,4]    findWorstP[4,3]  2.5189468611731724e-02
    x[4,5]    allocateEach[5]  1
    x[4,5]    findWorstP[1,4]  -1.1211469755788236e-01
    x[4,5]    findWorstP[2,4]  -1.6731423855860811e-01
    x[4,5]    findWorstP[3,4]  -1.5388757269007111e-01
    x[4,5]    findWorstP[4,1]  8.1745301616506769e-02
    x[4,5]    findWorstP[4,2]  8.1745301616506769e-02
    x[4,5]    findWorstP[4,3]  8.1745301616506769e-02
    x[4,6]    allocateEach[6]  1
    x[4,6]    findWorstP[1,4]  -0.151352521768718
    x[4,6]    findWorstP[2,4]  -1.1168036309871744e-01
    x[4,6]    findWorstP[3,4]  -4.6898556967477932e-02
    x[4,6]    findWorstP[4,1]  7.9073027555088271e-02
    x[4,6]    findWorstP[4,2]  7.9073027555088271e-02
    x[4,6]    findWorstP[4,3]  7.9073027555088271e-02
    x[4,7]    allocateEach[7]  1
    x[4,7]    findWorstP[1,4]  -1.5512628176376881e-02
    x[4,7]    findWorstP[2,4]  -3.5862875219200216e-02
    x[4,7]    findWorstP[3,4]  -1.7421387034245103e-01
    x[4,7]    findWorstP[4,1]  1.4752267052175058e-01
    x[4,7]    findWorstP[4,2]  1.4752267052175058e-01
    x[4,7]    findWorstP[4,3]  1.4752267052175058e-01
    x[4,8]    allocateEach[8]  1
    x[4,8]    findWorstP[1,4]  -1.4080455325796123e-01
    x[4,8]    findWorstP[2,4]  -1.4699308874600281e-01
    x[4,8]    findWorstP[3,4]  -4.1702562998061611e-02
    x[4,8]    findWorstP[4,1]  8.3760459105445315e-02
    x[4,8]    findWorstP[4,2]  8.3760459105445315e-02
    x[4,8]    findWorstP[4,3]  8.3760459105445315e-02
    x[4,9]    allocateEach[9]  1
    x[4,9]    findWorstP[1,4]  -5.9544983528465592e-03
    x[4,9]    findWorstP[2,4]  -1.2058590929408933e-01
    x[4,9]    findWorstP[3,4]  -2.9452939909541252e-02
    x[4,9]    findWorstP[4,1]  1.6929513295658652e-01
    x[4,9]    findWorstP[4,2]  1.6929513295658652e-01
    x[4,9]    findWorstP[4,3]  1.6929513295658652e-01
    x[4,10]   allocateEach[10]  1
    x[4,10]   findWorstP[1,4]  -1.3698439457444669e-01
    x[4,10]   findWorstP[2,4]  -4.5490492727710344e-02
    x[4,10]   findWorstP[3,4]  -7.1774714624165431e-02
    x[4,10]   findWorstP[4,1]  1.2209225916677620e-01
    x[4,10]   findWorstP[4,2]  1.2209225916677620e-01
    x[4,10]   findWorstP[4,3]  1.2209225916677620e-01
    MARKER    'MARKER'                 'INTEND'
RHS
    RHS1      allocateEach[1]  1
    RHS1      allocateEach[2]  1
    RHS1      allocateEach[3]  1
    RHS1      allocateEach[4]  1
    RHS1      allocateEach[5]  1
    RHS1      allocateEach[6]  1
    RHS1      allocateEach[7]  1
    RHS1      allocateEach[8]  1
    RHS1      allocateEach[9]  1
    RHS1      allocateEach[10]  1
    RHS1      allocateAllCash  1
BOUNDS
 UP BND1      z         1
 MI BND1      cashProportion[1]
 UP BND1      cashProportion[1]  1
 MI BND1      cashProportion[2]
 UP BND1      cashProportion[2]  1
 MI BND1      cashProportion[3]
 UP BND1      cashProportion[3]  1
 MI BND1      cashProportion[4]
 UP BND1      cashProportion[4]  1
 BV BND1      x[1,1]  
 BV BND1      x[1,2]  
 BV BND1      x[1,3]  
 BV BND1      x[1,4]  
 BV BND1      x[1,5]  
 BV BND1      x[1,6]  
 BV BND1      x[1,7]  
 BV BND1      x[1,8]  
 BV BND1      x[1,9]  
 BV BND1      x[1,10] 
 BV BND1      x[2,1]  
 BV BND1      x[2,2]  
 BV BND1      x[2,3]  
 BV BND1      x[2,4]  
 BV BND1      x[2,5]  
 BV BND1      x[2,6]  
 BV BND1      x[2,7]  
 BV BND1      x[2,8]  
 BV BND1      x[2,9]  
 BV BND1      x[2,10] 
 BV BND1      x[3,1]  
 BV BND1      x[3,2]  
 BV BND1      x[3,3]  
 BV BND1      x[3,4]  
 BV BND1      x[3,5]  
 BV BND1      x[3,6]  
 BV BND1      x[3,7]  
 BV BND1      x[3,8]  
 BV BND1      x[3,9]  
 BV BND1      x[3,10] 
 BV BND1      x[4,1]  
 BV BND1      x[4,2]  
 BV BND1      x[4,3]  
 BV BND1      x[4,4]  
 BV BND1      x[4,5]  
 BV BND1      x[4,6]  
 BV BND1      x[4,7]  
 BV BND1      x[4,8]  
 BV BND1      x[4,9]  
 BV BND1      x[4,10] 
ENDATA
